NAME: tsp45_21
COMMENT: 45-tsp problem (Padberg/Rinaldi)
TYPE: TSP
DIMENSION: 45
EDGE_WEIGHT_TYPE : EUC_2D
NODE_COORD_SECTION
1 12 20
2 20 8
3 25 1
4 6 26
5 17 13
6 39 9
7 7 16
8 33 7
9 16 26
10 6 17
11 37 30
12 28 7
13 13 8
14 3 39
15 11 17
16 38 30
17 1 13
18 31 37
19 37 17
20 23 27
21 11 39
22 8 34
23 0 10
24 20 31
25 13 18
26 11 25
27 32 6
28 14 16
29 28 3
30 39 23
31 12 15
32 15 13
33 35 34
34 2 0
35 4 1
36 13 27
37 8 30
38 10 22
39 31 27
40 39 12
41 40 5
42 34 25
43 28 14
44 14 1
45 7 28
